NAME : 10_3_3_2_(09).dat
COMMENT : Henke, Speranza, Wäscher, 2015
TYPE : MCVRP
DIMENSION : 11
EDGE_WEIGHT_TYPE : DISTANCE_MATRIX
CAPACITY : 1000
VEHICLES : 2
PRODUCT TYPES : 3
COMPARTMENTS : 3
NODE_COORD_SECTION
1 50 50
2 73.03 25.46
3 63.48 53.31
4 98.84 79.41
5 75.8 11.97
6 66.01 53.67
7 33.04 99.59
8 65.5 8.85
9 67.72 23.99
10 93.64 38.8
11 17.98 35.47
DEMAND_SECTION
1 0 0 0
2 28 44 0
3 54 15 0
4 106 76 0
5 38 50 0
6 100 13 0
7 122 25 0
8 110 59 0
9 181 64 0
10 0 74 300
11 14 30 0
DEPOT_SECTION
1
EOF